TCS_Benchmarks/redos_fix/snort1_output_distinct_2995_2994_37_0.txt
((.|\n|\r)*)(\w+)
((.|\n|\r)*)((\w+)\.\w+\.(insertBefore|insertAfter|appendChild)\()(\w+)